p cnf 408 1056
c weights 1.0 1.0 2.718281828459045 0.36787944117144233 2.718281828459045 0.36787944117144233 1.0 1.0 2.718281828459045 0.36787944117144233 2.718281828459045 0.36787944117144233 1.0 1.0 2.718281828459045 0.36787944117144233 2.718281828459045 0.36787944117144233 1.0 1.0 2.718281828459045 0.36787944117144233 2.718281828459045 0.36787944117144233 1.0 1.0 2.718281828459045 0.36787944117144233 2.718281828459045 0.36787944117144233 1.0 1.0 2.718281828459045 0.36787944117144233 2.718281828459045 0.36787944117144233 1.0 1.0 2.718281828459045 0.36787944117144233 2.718281828459045 0.36787944117144233 1.0 1.0 2.718281828459045 0.36787944117144233 2.718281828459045 0.36787944117144233 1.0 1.0 2.718281828459045 0.36787944117144233 2.718281828459045 0.36787944117144233 1.0 1.0 2.718281828459045 0.36787944117144233 2.718281828459045 0.36787944117144233 1.0 1.0 2.718281828459045 0.36787944117144233 2.718281828459045 0.36787944117144233 1.0 1.0 2.718281828459045 0.36787944117144233 1.0 1.0 2.718281828459045 0.36787944117144233 2.718281828459045 0.36787944117144233 1.0 1.0 2.718281828459045 0.36787944117144233 2.718281828459045 0.36787944117144233 1.0 1.0 2.718281828459045 0.36787944117144233 2.718281828459045 0.36787944117144233 1.0 1.0 2.718281828459045 0.36787944117144233 2.718281828459045 0.36787944117144233 1.0 1.0 2.718281828459045 0.36787944117144233 2.718281828459045 0.36787944117144233 1.0 1.0 2.718281828459045 0.36787944117144233 2.718281828459045 0.36787944117144233 1.0 1.0 2.718281828459045 0.36787944117144233 2.718281828459045 0.36787944117144233 1.0 1.0 2.718281828459045 0.36787944117144233 2.718281828459045 0.36787944117144233 1.0 1.0 2.718281828459045 0.36787944117144233 2.718281828459045 0.36787944117144233 1.0 1.0 2.718281828459045 0.36787944117144233 2.718281828459045 0.36787944117144233 1.0 1.0 2.718281828459045 0.36787944117144233 2.718281828459045 0.36787944117144233 1.0 1.0 2.718281828459045 0.36787944117144233 1.0 1.0 2.718281828459045 0.36787944117144233 2.718281828459045 0.36787944117144233 1.0 1.0 2.718281828459045 0.36787944117144233 2.718281828459045 0.36787944117144233 1.0 1.0 2.718281828459045 0.36787944117144233 2.718281828459045 0.36787944117144233 1.0 1.0 2.718281828459045 0.36787944117144233 2.718281828459045 0.36787944117144233 1.0 1.0 2.718281828459045 0.36787944117144233 2.718281828459045 0.36787944117144233 1.0 1.0 2.718281828459045 0.36787944117144233 2.718281828459045 0.36787944117144233 1.0 1.0 2.718281828459045 0.36787944117144233 2.718281828459045 0.36787944117144233 1.0 1.0 2.718281828459045 0.36787944117144233 2.718281828459045 0.36787944117144233 1.0 1.0 2.718281828459045 0.36787944117144233 2.718281828459045 0.36787944117144233 1.0 1.0 2.718281828459045 0.36787944117144233 2.718281828459045 0.36787944117144233 1.0 1.0 2.718281828459045 0.36787944117144233 2.718281828459045 0.36787944117144233 1.0 1.0 2.718281828459045 0.36787944117144233 1.0 1.0 2.718281828459045 0.36787944117144233 2.718281828459045 0.36787944117144233 1.0 1.0 2.718281828459045 0.36787944117144233 2.718281828459045 0.36787944117144233 1.0 1.0 2.718281828459045 0.36787944117144233 2.718281828459045 0.36787944117144233 1.0 1.0 2.718281828459045 0.36787944117144233 2.718281828459045 0.36787944117144233 1.0 1.0 2.718281828459045 0.36787944117144233 2.718281828459045 0.36787944117144233 1.0 1.0 2.718281828459045 0.36787944117144233 2.718281828459045 0.36787944117144233 1.0 1.0 2.718281828459045 0.36787944117144233 2.718281828459045 0.36787944117144233 1.0 1.0 2.718281828459045 0.36787944117144233 2.718281828459045 0.36787944117144233 1.0 1.0 2.718281828459045 0.36787944117144233 2.718281828459045 0.36787944117144233 1.0 1.0 2.718281828459045 0.36787944117144233 2.718281828459045 0.36787944117144233 1.0 1.0 2.718281828459045 0.36787944117144233 2.718281828459045 0.36787944117144233 1.0 1.0 2.718281828459045 0.36787944117144233 1.0 1.0 2.718281828459045 0.36787944117144233 2.718281828459045 0.36787944117144233 1.0 1.0 2.718281828459045 0.36787944117144233 2.718281828459045 0.36787944117144233 1.0 1.0 2.718281828459045 0.36787944117144233 2.718281828459045 0.36787944117144233 1.0 1.0 2.718281828459045 0.36787944117144233 2.718281828459045 0.36787944117144233 1.0 1.0 2.718281828459045 0.36787944117144233 2.718281828459045 0.36787944117144233 1.0 1.0 2.718281828459045 0.36787944117144233 2.718281828459045 0.36787944117144233 1.0 1.0 2.718281828459045 0.36787944117144233 2.718281828459045 0.36787944117144233 1.0 1.0 2.718281828459045 0.36787944117144233 2.718281828459045 0.36787944117144233 1.0 1.0 2.718281828459045 0.36787944117144233 2.718281828459045 0.36787944117144233 1.0 1.0 2.718281828459045 0.36787944117144233 2.718281828459045 0.36787944117144233 1.0 1.0 2.718281828459045 0.36787944117144233 2.718281828459045 0.36787944117144233 1.0 1.0 2.718281828459045 0.36787944117144233 1.0 1.0 2.718281828459045 0.36787944117144233 2.718281828459045 0.36787944117144233 1.0 1.0 2.718281828459045 0.36787944117144233 2.718281828459045 0.36787944117144233 1.0 1.0 2.718281828459045 0.36787944117144233 2.718281828459045 0.36787944117144233 1.0 1.0 2.718281828459045 0.36787944117144233 2.718281828459045 0.36787944117144233 1.0 1.0 2.718281828459045 0.36787944117144233 2.718281828459045 0.36787944117144233 1.0 1.0 2.718281828459045 0.36787944117144233 2.718281828459045 0.36787944117144233 1.0 1.0 2.718281828459045 0.36787944117144233 2.718281828459045 0.36787944117144233 1.0 1.0 2.718281828459045 0.36787944117144233 2.718281828459045 0.36787944117144233 1.0 1.0 2.718281828459045 0.36787944117144233 2.718281828459045 0.36787944117144233 1.0 1.0 2.718281828459045 0.36787944117144233 2.718281828459045 0.36787944117144233 1.0 1.0 2.718281828459045 0.36787944117144233 2.718281828459045 0.36787944117144233 1.0 1.0 2.718281828459045 0.36787944117144233 1.0 1.0 2.718281828459045 0.36787944117144233 2.718281828459045 0.36787944117144233 1.0 1.0 2.718281828459045 0.36787944117144233 2.718281828459045 0.36787944117144233 1.0 1.0 2.718281828459045 0.36787944117144233 2.718281828459045 0.36787944117144233 1.0 1.0 2.718281828459045 0.36787944117144233 2.718281828459045 0.36787944117144233 1.0 1.0 2.718281828459045 0.36787944117144233 2.718281828459045 0.36787944117144233 1.0 1.0 2.718281828459045 0.36787944117144233 2.718281828459045 0.36787944117144233 1.0 1.0 2.718281828459045 0.36787944117144233 2.718281828459045 0.36787944117144233 1.0 1.0 2.718281828459045 0.36787944117144233 2.718281828459045 0.36787944117144233 1.0 1.0 2.718281828459045 0.36787944117144233 2.718281828459045 0.36787944117144233 1.0 1.0 2.718281828459045 0.36787944117144233 2.718281828459045 0.36787944117144233 1.0 1.0 2.718281828459045 0.36787944117144233 2.718281828459045 0.36787944117144233 1.0 1.0 2.718281828459045 0.36787944117144233 1.0 1.0 2.718281828459045 0.36787944117144233 2.718281828459045 0.36787944117144233 1.0 1.0 2.718281828459045 0.36787944117144233 2.718281828459045 0.36787944117144233 1.0 1.0 2.718281828459045 0.36787944117144233 2.718281828459045 0.36787944117144233 1.0 1.0 2.718281828459045 0.36787944117144233 2.718281828459045 0.36787944117144233 1.0 1.0 2.718281828459045 0.36787944117144233 2.718281828459045 0.36787944117144233 1.0 1.0 2.718281828459045 0.36787944117144233 2.718281828459045 0.36787944117144233 1.0 1.0 2.718281828459045 0.36787944117144233 2.718281828459045 0.36787944117144233 1.0 1.0 2.718281828459045 0.36787944117144233 2.718281828459045 0.36787944117144233 1.0 1.0 2.718281828459045 0.36787944117144233 2.718281828459045 0.36787944117144233 1.0 1.0 2.718281828459045 0.36787944117144233 2.718281828459045 0.36787944117144233 1.0 1.0 2.718281828459045 0.36787944117144233 2.718281828459045 0.36787944117144233 1.0 1.0 2.718281828459045 0.36787944117144233 1.0 1.0 2.718281828459045 0.36787944117144233 2.718281828459045 0.36787944117144233 1.0 1.0 2.718281828459045 0.36787944117144233 2.718281828459045 0.36787944117144233 1.0 1.0 2.718281828459045 0.36787944117144233 2.718281828459045 0.36787944117144233 1.0 1.0 2.718281828459045 0.36787944117144233 2.718281828459045 0.36787944117144233 1.0 1.0 2.718281828459045 0.36787944117144233 2.718281828459045 0.36787944117144233 1.0 1.0 2.718281828459045 0.36787944117144233 2.718281828459045 0.36787944117144233 1.0 1.0 2.718281828459045 0.36787944117144233 2.718281828459045 0.36787944117144233 1.0 1.0 2.718281828459045 0.36787944117144233 2.718281828459045 0.36787944117144233 1.0 1.0 2.718281828459045 0.36787944117144233 2.718281828459045 0.36787944117144233 1.0 1.0 2.718281828459045 0.36787944117144233 2.718281828459045 0.36787944117144233 1.0 1.0 2.718281828459045 0.36787944117144233 2.718281828459045 0.36787944117144233 1.0 1.0 2.718281828459045 0.36787944117144233 1.0 1.0 2.718281828459045 0.36787944117144233 2.718281828459045 0.36787944117144233 1.0 1.0 2.718281828459045 0.36787944117144233 2.718281828459045 0.36787944117144233 1.0 1.0 2.718281828459045 0.36787944117144233 2.718281828459045 0.36787944117144233 1.0 1.0 2.718281828459045 0.36787944117144233 2.718281828459045 0.36787944117144233 1.0 1.0 2.718281828459045 0.36787944117144233 2.718281828459045 0.36787944117144233 1.0 1.0 2.718281828459045 0.36787944117144233 2.718281828459045 0.36787944117144233 1.0 1.0 2.718281828459045 0.36787944117144233 2.718281828459045 0.36787944117144233 1.0 1.0 2.718281828459045 0.36787944117144233 2.718281828459045 0.36787944117144233 1.0 1.0 2.718281828459045 0.36787944117144233 2.718281828459045 0.36787944117144233 1.0 1.0 2.718281828459045 0.36787944117144233 2.718281828459045 0.36787944117144233 1.0 1.0 2.718281828459045 0.36787944117144233 2.718281828459045 0.36787944117144233 1.0 1.0 2.718281828459045 0.36787944117144233 1.0 1.0 2.718281828459045 0.36787944117144233 2.718281828459045 0.36787944117144233 1.0 1.0 2.718281828459045 0.36787944117144233 2.718281828459045 0.36787944117144233 1.0 1.0 2.718281828459045 0.36787944117144233 2.718281828459045 0.36787944117144233 1.0 1.0 2.718281828459045 0.36787944117144233 2.718281828459045 0.36787944117144233 1.0 1.0 2.718281828459045 0.36787944117144233 2.718281828459045 0.36787944117144233 1.0 1.0 2.718281828459045 0.36787944117144233 2.718281828459045 0.36787944117144233 1.0 1.0 2.718281828459045 0.36787944117144233 2.718281828459045 0.36787944117144233 1.0 1.0 2.718281828459045 0.36787944117144233 2.718281828459045 0.36787944117144233 1.0 1.0 2.718281828459045 0.36787944117144233 2.718281828459045 0.36787944117144233 1.0 1.0 2.718281828459045 0.36787944117144233 2.718281828459045 0.36787944117144233 1.0 1.0 2.718281828459045 0.36787944117144233 2.718281828459045 0.36787944117144233 1.0 1.0 2.718281828459045 0.36787944117144233 1.0 1.0 2.718281828459045 0.36787944117144233 1.0 1.0 2.718281828459045 0.36787944117144233 1.0 1.0 2.718281828459045 0.36787944117144233 1.0 1.0 2.718281828459045 0.36787944117144233 1.0 1.0 2.718281828459045 0.36787944117144233 1.0 1.0 2.718281828459045 0.36787944117144233 1.0 1.0 2.718281828459045 0.36787944117144233 1.0 1.0 2.718281828459045 0.36787944117144233 1.0 1.0 2.718281828459045 0.36787944117144233 1.0 1.0 2.718281828459045 0.36787944117144233 1.0 1.0 2.718281828459045 0.36787944117144233 1.0 1.0
2 1 4 0
2 -1 -4 0
-2 1 -4 0
-2 -1 4 0
3 1 36 0
3 -1 -36 0
-3 1 -36 0
-3 -1 36 0
5 4 7 0
5 -4 -7 0
-5 4 -7 0
-5 -4 7 0
6 4 39 0
6 -4 -39 0
-6 4 -39 0
-6 -4 39 0
8 7 10 0
8 -7 -10 0
-8 7 -10 0
-8 -7 10 0
9 7 42 0
9 -7 -42 0
-9 7 -42 0
-9 -7 42 0
11 10 13 0
11 -10 -13 0
-11 10 -13 0
-11 -10 13 0
12 10 45 0
12 -10 -45 0
-12 10 -45 0
-12 -10 45 0
14 13 16 0
14 -13 -16 0
-14 13 -16 0
-14 -13 16 0
15 13 48 0
15 -13 -48 0
-15 13 -48 0
-15 -13 48 0
17 16 19 0
17 -16 -19 0
-17 16 -19 0
-17 -16 19 0
18 16 51 0
18 -16 -51 0
-18 16 -51 0
-18 -16 51 0
20 19 22 0
20 -19 -22 0
-20 19 -22 0
-20 -19 22 0
21 19 54 0
21 -19 -54 0
-21 19 -54 0
-21 -19 54 0
23 22 25 0
23 -22 -25 0
-23 22 -25 0
-23 -22 25 0
24 22 57 0
24 -22 -57 0
-24 22 -57 0
-24 -22 57 0
26 25 28 0
26 -25 -28 0
-26 25 -28 0
-26 -25 28 0
27 25 60 0
27 -25 -60 0
-27 25 -60 0
-27 -25 60 0
29 28 31 0
29 -28 -31 0
-29 28 -31 0
-29 -28 31 0
30 28 63 0
30 -28 -63 0
-30 28 -63 0
-30 -28 63 0
32 31 34 0
32 -31 -34 0
-32 31 -34 0
-32 -31 34 0
33 31 66 0
33 -31 -66 0
-33 31 -66 0
-33 -31 66 0
35 34 69 0
35 -34 -69 0
-35 34 -69 0
-35 -34 69 0
37 36 39 0
37 -36 -39 0
-37 36 -39 0
-37 -36 39 0
38 36 71 0
38 -36 -71 0
-38 36 -71 0
-38 -36 71 0
40 39 42 0
40 -39 -42 0
-40 39 -42 0
-40 -39 42 0
41 39 74 0
41 -39 -74 0
-41 39 -74 0
-41 -39 74 0
43 42 45 0
43 -42 -45 0
-43 42 -45 0
-43 -42 45 0
44 42 77 0
44 -42 -77 0
-44 42 -77 0
-44 -42 77 0
46 45 48 0
46 -45 -48 0
-46 45 -48 0
-46 -45 48 0
47 45 80 0
47 -45 -80 0
-47 45 -80 0
-47 -45 80 0
49 48 51 0
49 -48 -51 0
-49 48 -51 0
-49 -48 51 0
50 48 83 0
50 -48 -83 0
-50 48 -83 0
-50 -48 83 0
52 51 54 0
52 -51 -54 0
-52 51 -54 0
-52 -51 54 0
53 51 86 0
53 -51 -86 0
-53 51 -86 0
-53 -51 86 0
55 54 57 0
55 -54 -57 0
-55 54 -57 0
-55 -54 57 0
56 54 89 0
56 -54 -89 0
-56 54 -89 0
-56 -54 89 0
58 57 60 0
58 -57 -60 0
-58 57 -60 0
-58 -57 60 0
59 57 92 0
59 -57 -92 0
-59 57 -92 0
-59 -57 92 0
61 60 63 0
61 -60 -63 0
-61 60 -63 0
-61 -60 63 0
62 60 95 0
62 -60 -95 0
-62 60 -95 0
-62 -60 95 0
64 63 66 0
64 -63 -66 0
-64 63 -66 0
-64 -63 66 0
65 63 98 0
65 -63 -98 0
-65 63 -98 0
-65 -63 98 0
67 66 69 0
67 -66 -69 0
-67 66 -69 0
-67 -66 69 0
68 66 101 0
68 -66 -101 0
-68 66 -101 0
-68 -66 101 0
70 69 104 0
70 -69 -104 0
-70 69 -104 0
-70 -69 104 0
72 71 74 0
72 -71 -74 0
-72 71 -74 0
-72 -71 74 0
73 71 106 0
73 -71 -106 0
-73 71 -106 0
-73 -71 106 0
75 74 77 0
75 -74 -77 0
-75 74 -77 0
-75 -74 77 0
76 74 109 0
76 -74 -109 0
-76 74 -109 0
-76 -74 109 0
78 77 80 0
78 -77 -80 0
-78 77 -80 0
-78 -77 80 0
79 77 112 0
79 -77 -112 0
-79 77 -112 0
-79 -77 112 0
81 80 83 0
81 -80 -83 0
-81 80 -83 0
-81 -80 83 0
82 80 115 0
82 -80 -115 0
-82 80 -115 0
-82 -80 115 0
84 83 86 0
84 -83 -86 0
-84 83 -86 0
-84 -83 86 0
85 83 118 0
85 -83 -118 0
-85 83 -118 0
-85 -83 118 0
87 86 89 0
87 -86 -89 0
-87 86 -89 0
-87 -86 89 0
88 86 121 0
88 -86 -121 0
-88 86 -121 0
-88 -86 121 0
90 89 92 0
90 -89 -92 0
-90 89 -92 0
-90 -89 92 0
91 89 124 0
91 -89 -124 0
-91 89 -124 0
-91 -89 124 0
93 92 95 0
93 -92 -95 0
-93 92 -95 0
-93 -92 95 0
94 92 127 0
94 -92 -127 0
-94 92 -127 0
-94 -92 127 0
96 95 98 0
96 -95 -98 0
-96 95 -98 0
-96 -95 98 0
97 95 130 0
97 -95 -130 0
-97 95 -130 0
-97 -95 130 0
99 98 101 0
99 -98 -101 0
-99 98 -101 0
-99 -98 101 0
100 98 133 0
100 -98 -133 0
-100 98 -133 0
-100 -98 133 0
102 101 104 0
102 -101 -104 0
-102 101 -104 0
-102 -101 104 0
103 101 136 0
103 -101 -136 0
-103 101 -136 0
-103 -101 136 0
105 104 139 0
105 -104 -139 0
-105 104 -139 0
-105 -104 139 0
107 106 109 0
107 -106 -109 0
-107 106 -109 0
-107 -106 109 0
108 106 141 0
108 -106 -141 0
-108 106 -141 0
-108 -106 141 0
110 109 112 0
110 -109 -112 0
-110 109 -112 0
-110 -109 112 0
111 109 144 0
111 -109 -144 0
-111 109 -144 0
-111 -109 144 0
113 112 115 0
113 -112 -115 0
-113 112 -115 0
-113 -112 115 0
114 112 147 0
114 -112 -147 0
-114 112 -147 0
-114 -112 147 0
116 115 118 0
116 -115 -118 0
-116 115 -118 0
-116 -115 118 0
117 115 150 0
117 -115 -150 0
-117 115 -150 0
-117 -115 150 0
119 118 121 0
119 -118 -121 0
-119 118 -121 0
-119 -118 121 0
120 118 153 0
120 -118 -153 0
-120 118 -153 0
-120 -118 153 0
122 121 124 0
122 -121 -124 0
-122 121 -124 0
-122 -121 124 0
123 121 156 0
123 -121 -156 0
-123 121 -156 0
-123 -121 156 0
125 124 127 0
125 -124 -127 0
-125 124 -127 0
-125 -124 127 0
126 124 159 0
126 -124 -159 0
-126 124 -159 0
-126 -124 159 0
128 127 130 0
128 -127 -130 0
-128 127 -130 0
-128 -127 130 0
129 127 162 0
129 -127 -162 0
-129 127 -162 0
-129 -127 162 0
131 130 133 0
131 -130 -133 0
-131 130 -133 0
-131 -130 133 0
132 130 165 0
132 -130 -165 0
-132 130 -165 0
-132 -130 165 0
134 133 136 0
134 -133 -136 0
-134 133 -136 0
-134 -133 136 0
135 133 168 0
135 -133 -168 0
-135 133 -168 0
-135 -133 168 0
137 136 139 0
137 -136 -139 0
-137 136 -139 0
-137 -136 139 0
138 136 171 0
138 -136 -171 0
-138 136 -171 0
-138 -136 171 0
140 139 174 0
140 -139 -174 0
-140 139 -174 0
-140 -139 174 0
142 141 144 0
142 -141 -144 0
-142 141 -144 0
-142 -141 144 0
143 141 176 0
143 -141 -176 0
-143 141 -176 0
-143 -141 176 0
145 144 147 0
145 -144 -147 0
-145 144 -147 0
-145 -144 147 0
146 144 179 0
146 -144 -179 0
-146 144 -179 0
-146 -144 179 0
148 147 150 0
148 -147 -150 0
-148 147 -150 0
-148 -147 150 0
149 147 182 0
149 -147 -182 0
-149 147 -182 0
-149 -147 182 0
151 150 153 0
151 -150 -153 0
-151 150 -153 0
-151 -150 153 0
152 150 185 0
152 -150 -185 0
-152 150 -185 0
-152 -150 185 0
154 153 156 0
154 -153 -156 0
-154 153 -156 0
-154 -153 156 0
155 153 188 0
155 -153 -188 0
-155 153 -188 0
-155 -153 188 0
157 156 159 0
157 -156 -159 0
-157 156 -159 0
-157 -156 159 0
158 156 191 0
158 -156 -191 0
-158 156 -191 0
-158 -156 191 0
160 159 162 0
160 -159 -162 0
-160 159 -162 0
-160 -159 162 0
161 159 194 0
161 -159 -194 0
-161 159 -194 0
-161 -159 194 0
163 162 165 0
163 -162 -165 0
-163 162 -165 0
-163 -162 165 0
164 162 197 0
164 -162 -197 0
-164 162 -197 0
-164 -162 197 0
166 165 168 0
166 -165 -168 0
-166 165 -168 0
-166 -165 168 0
167 165 200 0
167 -165 -200 0
-167 165 -200 0
-167 -165 200 0
169 168 171 0
169 -168 -171 0
-169 168 -171 0
-169 -168 171 0
170 168 203 0
170 -168 -203 0
-170 168 -203 0
-170 -168 203 0
172 171 174 0
172 -171 -174 0
-172 171 -174 0
-172 -171 174 0
173 171 206 0
173 -171 -206 0
-173 171 -206 0
-173 -171 206 0
175 174 209 0
175 -174 -209 0
-175 174 -209 0
-175 -174 209 0
177 176 179 0
177 -176 -179 0
-177 176 -179 0
-177 -176 179 0
178 176 211 0
178 -176 -211 0
-178 176 -211 0
-178 -176 211 0
180 179 182 0
180 -179 -182 0
-180 179 -182 0
-180 -179 182 0
181 179 214 0
181 -179 -214 0
-181 179 -214 0
-181 -179 214 0
183 182 185 0
183 -182 -185 0
-183 182 -185 0
-183 -182 185 0
184 182 217 0
184 -182 -217 0
-184 182 -217 0
-184 -182 217 0
186 185 188 0
186 -185 -188 0
-186 185 -188 0
-186 -185 188 0
187 185 220 0
187 -185 -220 0
-187 185 -220 0
-187 -185 220 0
189 188 191 0
189 -188 -191 0
-189 188 -191 0
-189 -188 191 0
190 188 223 0
190 -188 -223 0
-190 188 -223 0
-190 -188 223 0
192 191 194 0
192 -191 -194 0
-192 191 -194 0
-192 -191 194 0
193 191 226 0
193 -191 -226 0
-193 191 -226 0
-193 -191 226 0
195 194 197 0
195 -194 -197 0
-195 194 -197 0
-195 -194 197 0
196 194 229 0
196 -194 -229 0
-196 194 -229 0
-196 -194 229 0
198 197 200 0
198 -197 -200 0
-198 197 -200 0
-198 -197 200 0
199 197 232 0
199 -197 -232 0
-199 197 -232 0
-199 -197 232 0
201 200 203 0
201 -200 -203 0
-201 200 -203 0
-201 -200 203 0
202 200 235 0
202 -200 -235 0
-202 200 -235 0
-202 -200 235 0
204 203 206 0
204 -203 -206 0
-204 203 -206 0
-204 -203 206 0
205 203 238 0
205 -203 -238 0
-205 203 -238 0
-205 -203 238 0
207 206 209 0
207 -206 -209 0
-207 206 -209 0
-207 -206 209 0
208 206 241 0
208 -206 -241 0
-208 206 -241 0
-208 -206 241 0
210 209 244 0
210 -209 -244 0
-210 209 -244 0
-210 -209 244 0
212 211 214 0
212 -211 -214 0
-212 211 -214 0
-212 -211 214 0
213 211 246 0
213 -211 -246 0
-213 211 -246 0
-213 -211 246 0
215 214 217 0
215 -214 -217 0
-215 214 -217 0
-215 -214 217 0
216 214 249 0
216 -214 -249 0
-216 214 -249 0
-216 -214 249 0
218 217 220 0
218 -217 -220 0
-218 217 -220 0
-218 -217 220 0
219 217 252 0
219 -217 -252 0
-219 217 -252 0
-219 -217 252 0
221 220 223 0
221 -220 -223 0
-221 220 -223 0
-221 -220 223 0
222 220 255 0
222 -220 -255 0
-222 220 -255 0
-222 -220 255 0
224 223 226 0
224 -223 -226 0
-224 223 -226 0
-224 -223 226 0
225 223 258 0
225 -223 -258 0
-225 223 -258 0
-225 -223 258 0
227 226 229 0
227 -226 -229 0
-227 226 -229 0
-227 -226 229 0
228 226 261 0
228 -226 -261 0
-228 226 -261 0
-228 -226 261 0
230 229 232 0
230 -229 -232 0
-230 229 -232 0
-230 -229 232 0
231 229 264 0
231 -229 -264 0
-231 229 -264 0
-231 -229 264 0
233 232 235 0
233 -232 -235 0
-233 232 -235 0
-233 -232 235 0
234 232 267 0
234 -232 -267 0
-234 232 -267 0
-234 -232 267 0
236 235 238 0
236 -235 -238 0
-236 235 -238 0
-236 -235 238 0
237 235 270 0
237 -235 -270 0
-237 235 -270 0
-237 -235 270 0
239 238 241 0
239 -238 -241 0
-239 238 -241 0
-239 -238 241 0
240 238 273 0
240 -238 -273 0
-240 238 -273 0
-240 -238 273 0
242 241 244 0
242 -241 -244 0
-242 241 -244 0
-242 -241 244 0
243 241 276 0
243 -241 -276 0
-243 241 -276 0
-243 -241 276 0
245 244 279 0
245 -244 -279 0
-245 244 -279 0
-245 -244 279 0
247 246 249 0
247 -246 -249 0
-247 246 -249 0
-247 -246 249 0
248 246 281 0
248 -246 -281 0
-248 246 -281 0
-248 -246 281 0
250 249 252 0
250 -249 -252 0
-250 249 -252 0
-250 -249 252 0
251 249 284 0
251 -249 -284 0
-251 249 -284 0
-251 -249 284 0
253 252 255 0
253 -252 -255 0
-253 252 -255 0
-253 -252 255 0
254 252 287 0
254 -252 -287 0
-254 252 -287 0
-254 -252 287 0
256 255 258 0
256 -255 -258 0
-256 255 -258 0
-256 -255 258 0
257 255 290 0
257 -255 -290 0
-257 255 -290 0
-257 -255 290 0
259 258 261 0
259 -258 -261 0
-259 258 -261 0
-259 -258 261 0
260 258 293 0
260 -258 -293 0
-260 258 -293 0
-260 -258 293 0
262 261 264 0
262 -261 -264 0
-262 261 -264 0
-262 -261 264 0
263 261 296 0
263 -261 -296 0
-263 261 -296 0
-263 -261 296 0
265 264 267 0
265 -264 -267 0
-265 264 -267 0
-265 -264 267 0
266 264 299 0
266 -264 -299 0
-266 264 -299 0
-266 -264 299 0
268 267 270 0
268 -267 -270 0
-268 267 -270 0
-268 -267 270 0
269 267 302 0
269 -267 -302 0
-269 267 -302 0
-269 -267 302 0
271 270 273 0
271 -270 -273 0
-271 270 -273 0
-271 -270 273 0
272 270 305 0
272 -270 -305 0
-272 270 -305 0
-272 -270 305 0
274 273 276 0
274 -273 -276 0
-274 273 -276 0
-274 -273 276 0
275 273 308 0
275 -273 -308 0
-275 273 -308 0
-275 -273 308 0
277 276 279 0
277 -276 -279 0
-277 276 -279 0
-277 -276 279 0
278 276 311 0
278 -276 -311 0
-278 276 -311 0
-278 -276 311 0
280 279 314 0
280 -279 -314 0
-280 279 -314 0
-280 -279 314 0
282 281 284 0
282 -281 -284 0
-282 281 -284 0
-282 -281 284 0
283 281 316 0
283 -281 -316 0
-283 281 -316 0
-283 -281 316 0
285 284 287 0
285 -284 -287 0
-285 284 -287 0
-285 -284 287 0
286 284 319 0
286 -284 -319 0
-286 284 -319 0
-286 -284 319 0
288 287 290 0
288 -287 -290 0
-288 287 -290 0
-288 -287 290 0
289 287 322 0
289 -287 -322 0
-289 287 -322 0
-289 -287 322 0
291 290 293 0
291 -290 -293 0
-291 290 -293 0
-291 -290 293 0
292 290 325 0
292 -290 -325 0
-292 290 -325 0
-292 -290 325 0
294 293 296 0
294 -293 -296 0
-294 293 -296 0
-294 -293 296 0
295 293 328 0
295 -293 -328 0
-295 293 -328 0
-295 -293 328 0
297 296 299 0
297 -296 -299 0
-297 296 -299 0
-297 -296 299 0
298 296 331 0
298 -296 -331 0
-298 296 -331 0
-298 -296 331 0
300 299 302 0
300 -299 -302 0
-300 299 -302 0
-300 -299 302 0
301 299 334 0
301 -299 -334 0
-301 299 -334 0
-301 -299 334 0
303 302 305 0
303 -302 -305 0
-303 302 -305 0
-303 -302 305 0
304 302 337 0
304 -302 -337 0
-304 302 -337 0
-304 -302 337 0
306 305 308 0
306 -305 -308 0
-306 305 -308 0
-306 -305 308 0
307 305 340 0
307 -305 -340 0
-307 305 -340 0
-307 -305 340 0
309 308 311 0
309 -308 -311 0
-309 308 -311 0
-309 -308 311 0
310 308 343 0
310 -308 -343 0
-310 308 -343 0
-310 -308 343 0
312 311 314 0
312 -311 -314 0
-312 311 -314 0
-312 -311 314 0
313 311 346 0
313 -311 -346 0
-313 311 -346 0
-313 -311 346 0
315 314 349 0
315 -314 -349 0
-315 314 -349 0
-315 -314 349 0
317 316 319 0
317 -316 -319 0
-317 316 -319 0
-317 -316 319 0
318 316 351 0
318 -316 -351 0
-318 316 -351 0
-318 -316 351 0
320 319 322 0
320 -319 -322 0
-320 319 -322 0
-320 -319 322 0
321 319 354 0
321 -319 -354 0
-321 319 -354 0
-321 -319 354 0
323 322 325 0
323 -322 -325 0
-323 322 -325 0
-323 -322 325 0
324 322 357 0
324 -322 -357 0
-324 322 -357 0
-324 -322 357 0
326 325 328 0
326 -325 -328 0
-326 325 -328 0
-326 -325 328 0
327 325 360 0
327 -325 -360 0
-327 325 -360 0
-327 -325 360 0
329 328 331 0
329 -328 -331 0
-329 328 -331 0
-329 -328 331 0
330 328 363 0
330 -328 -363 0
-330 328 -363 0
-330 -328 363 0
332 331 334 0
332 -331 -334 0
-332 331 -334 0
-332 -331 334 0
333 331 366 0
333 -331 -366 0
-333 331 -366 0
-333 -331 366 0
335 334 337 0
335 -334 -337 0
-335 334 -337 0
-335 -334 337 0
336 334 369 0
336 -334 -369 0
-336 334 -369 0
-336 -334 369 0
338 337 340 0
338 -337 -340 0
-338 337 -340 0
-338 -337 340 0
339 337 372 0
339 -337 -372 0
-339 337 -372 0
-339 -337 372 0
341 340 343 0
341 -340 -343 0
-341 340 -343 0
-341 -340 343 0
342 340 375 0
342 -340 -375 0
-342 340 -375 0
-342 -340 375 0
344 343 346 0
344 -343 -346 0
-344 343 -346 0
-344 -343 346 0
345 343 378 0
345 -343 -378 0
-345 343 -378 0
-345 -343 378 0
347 346 349 0
347 -346 -349 0
-347 346 -349 0
-347 -346 349 0
348 346 381 0
348 -346 -381 0
-348 346 -381 0
-348 -346 381 0
350 349 384 0
350 -349 -384 0
-350 349 -384 0
-350 -349 384 0
352 351 354 0
352 -351 -354 0
-352 351 -354 0
-352 -351 354 0
353 351 386 0
353 -351 -386 0
-353 351 -386 0
-353 -351 386 0
355 354 357 0
355 -354 -357 0
-355 354 -357 0
-355 -354 357 0
356 354 388 0
356 -354 -388 0
-356 354 -388 0
-356 -354 388 0
358 357 360 0
358 -357 -360 0
-358 357 -360 0
-358 -357 360 0
359 357 390 0
359 -357 -390 0
-359 357 -390 0
-359 -357 390 0
361 360 363 0
361 -360 -363 0
-361 360 -363 0
-361 -360 363 0
362 360 392 0
362 -360 -392 0
-362 360 -392 0
-362 -360 392 0
364 363 366 0
364 -363 -366 0
-364 363 -366 0
-364 -363 366 0
365 363 394 0
365 -363 -394 0
-365 363 -394 0
-365 -363 394 0
367 366 369 0
367 -366 -369 0
-367 366 -369 0
-367 -366 369 0
368 366 396 0
368 -366 -396 0
-368 366 -396 0
-368 -366 396 0
370 369 372 0
370 -369 -372 0
-370 369 -372 0
-370 -369 372 0
371 369 398 0
371 -369 -398 0
-371 369 -398 0
-371 -369 398 0
373 372 375 0
373 -372 -375 0
-373 372 -375 0
-373 -372 375 0
374 372 400 0
374 -372 -400 0
-374 372 -400 0
-374 -372 400 0
376 375 378 0
376 -375 -378 0
-376 375 -378 0
-376 -375 378 0
377 375 402 0
377 -375 -402 0
-377 375 -402 0
-377 -375 402 0
379 378 381 0
379 -378 -381 0
-379 378 -381 0
-379 -378 381 0
380 378 404 0
380 -378 -404 0
-380 378 -404 0
-380 -378 404 0
382 381 384 0
382 -381 -384 0
-382 381 -384 0
-382 -381 384 0
383 381 406 0
383 -381 -406 0
-383 381 -406 0
-383 -381 406 0
385 384 408 0
385 -384 -408 0
-385 384 -408 0
-385 -384 408 0
387 386 388 0
387 -386 -388 0
-387 386 -388 0
-387 -386 388 0
389 388 390 0
389 -388 -390 0
-389 388 -390 0
-389 -388 390 0
391 390 392 0
391 -390 -392 0
-391 390 -392 0
-391 -390 392 0
393 392 394 0
393 -392 -394 0
-393 392 -394 0
-393 -392 394 0
395 394 396 0
395 -394 -396 0
-395 394 -396 0
-395 -394 396 0
397 396 398 0
397 -396 -398 0
-397 396 -398 0
-397 -396 398 0
399 398 400 0
399 -398 -400 0
-399 398 -400 0
-399 -398 400 0
401 400 402 0
401 -400 -402 0
-401 400 -402 0
-401 -400 402 0
403 402 404 0
403 -402 -404 0
-403 402 -404 0
-403 -402 404 0
405 404 406 0
405 -404 -406 0
-405 404 -406 0
-405 -404 406 0
407 406 408 0
407 -406 -408 0
-407 406 -408 0
-407 -406 408 0
